N = 9;
Capacity = 12;
Demand = [6, 1, 2, 5, 4, 8, 1, 9, 7];
Distance = [|
  0, 48, 26, 58, 27, 19, 42, 29, 24, 26
| 48, 0, 65, 60, 57, 63, 61, 25, 70, 70
| 26, 65, 0, 45, 12, 36, 25, 40, 13, 41
| 58, 60, 45, 0, 35, 75, 21, 42, 58, 82
| 27, 57, 12, 35, 0, 42, 16, 32, 24, 49
| 19, 63, 36, 75, 42, 0, 58, 47, 27, 8
| 42, 61, 25, 21, 16, 58, 0, 37, 38, 64
| 29, 25, 40, 42, 32, 47, 37, 0, 47, 54
| 24, 70, 13, 58, 24, 27, 38, 47, 0, 31
| 26, 70, 41, 82, 49, 8, 64, 54, 31, 0
|];
